NAME: dataset2.tsp
TYPE: TSP
COMMENT: 2 ciudades creadas por Antonio Abad
DIMMENSION: 2
EDGE_WEIGHT_TYPE: EUC_2D
NODE_COORD_SECTION
1 911.2260296059 1738.3672881168
2 1859.4440070738 1831.7783799538
EOF